* ENCODING=ISO-8859-1
NAME          CPLEX
ROWS
 N  obj1    
 G  c1      
 G  c2      
 G  c3      
 G  c4      
 G  c5      
 G  c6      
 G  c7      
 G  c8      
 G  c9      
 G  c10     
 G  c11     
 G  c12     
 G  c13     
 G  c14     
 G  c15     
 G  c16     
 G  c17     
 G  c18     
 G  c19     
 G  c20     
 G  c21     
 G  c22     
 G  c23     
 G  c24     
 G  c25     
 G  c26     
 G  c27     
 G  c28     
 G  c29     
 G  c30     
 G  c31     
 G  c32     
 G  c33     
 G  c34     
 G  c35     
 G  c36     
 G  c37     
 G  c38     
 G  c39     
 G  c40     
 G  c41     
 G  c42     
 G  c43     
 G  c44     
 G  c45     
 G  c46     
 G  c47     
 G  c48     
 G  c49     
 G  c50     
 G  c51     
 G  c52     
 G  c53     
 G  c54     
 G  c55     
 G  c56     
 G  c57     
 G  c58     
 G  c59     
 G  c60     
COLUMNS
    MARK0000  'MARKER'                 'INTORG'
    x1        obj1                            1
    x1        c1                            612
    x1        c2                            428
    x1        c14                           232
    x1        c16                           337
    x1        c25                           505
    x1        c27                           651
    x1        c31                           857
    x1        c41                           783
    x1        c54                           538
    x1        c57                           365
    x1        c60                           135
    x2        obj1                            1
    x2        c10                           354
    x2        c16                           930
    x2        c40                           120
    x2        c41                           999
    x2        c50                           383
    x2        c54                           586
    x2        c56                           610
    x3        obj1                            1
    x3        c8                            615
    x3        c24                           418
    x3        c37                           444
    x3        c46                           859
    x3        c52                           308
    x3        c56                           887
    x3        c57                           317
    x4        obj1                            1
    x4        c3                            622
    x4        c7                            430
    x4        c9                            362
    x4        c15                           826
    x4        c19                           499
    x4        c46                           121
    x5        obj1                            1
    x5        c7                            918
    x5        c27                           289
    x5        c29                           406
    x5        c30                           509
    x5        c43                           849
    x5        c54                           361
    x6        obj1                            1
    x6        c6                            501
    x6        c19                           793
    x6        c52                           304
    x7        obj1                            1
    x7        c10                           741
    x7        c15                           230
    x7        c19                           213
    x7        c29                           882
    x7        c30                           954
    x7        c33                           250
    x7        c56                           969
    x7        c58                           160
    x8        obj1                            1
    x8        c4                            562
    x8        c9                            472
    x8        c30                           124
    x8        c31                           686
    x8        c50                           940
    x9        obj1                            1
    x9        c4                            202
    x9        c12                           772
    x9        c23                           439
    x9        c24                           378
    x9        c27                           421
    x9        c31                           219
    x9        c36                           147
    x9        c52                           148
    x9        c56                           855
    x9        c59                           908
    x10       obj1                            1
    x10       c2                            563
    x10       c6                            742
    x10       c11                           689
    x10       c15                           705
    x10       c30                           419
    x10       c48                           569
    x10       c53                           133
    x11       obj1                            1
    x11       c19                           728
    x11       c22                           754
    x11       c35                           113
    x11       c37                           730
    x11       c38                           965
    x11       c58                           251
    x12       obj1                            1
    x12       c1                            161
    x12       c14                           764
    x12       c20                           372
    x12       c22                           484
    x12       c26                           481
    x12       c36                           156
    x12       c43                           128
    x12       c50                           755
    x13       obj1                            1
    x13       c10                           635
    x13       c18                           564
    x13       c22                           360
    x13       c31                           218
    x13       c35                           772
    x14       obj1                            1
    x14       c10                           162
    x14       c27                           876
    x14       c31                           621
    x14       c34                           207
    x14       c38                           803
    x14       c49                           657
    x14       c58                           718
    x14       c60                           408
    x15       obj1                            1
    x15       c51                           313
    x15       c55                           916
    x16       obj1                            1
    x16       c4                            645
    x16       c21                           163
    x16       c32                           780
    x16       c47                           588
    x17       obj1                            1
    x17       c1                            161
    x17       c14                           722
    x17       c24                           991
    x17       c58                           164
    x18       obj1                            1
    x18       c34                           136
    x18       c40                           644
    x18       c47                           401
    x18       c53                           364
    x18       c57                           808
    x19       obj1                            1
    x19       c18                           846
    x19       c22                           907
    x19       c29                           264
    x19       c32                           608
    x19       c34                           926
    x19       c36                           893
    x19       c40                           578
    x19       c45                           145
    x20       obj1                            1
    x20       c15                           630
    x20       c16                           490
    x20       c31                           805
    x20       c35                           464
    x20       c42                           248
    x20       c43                           454
    x20       c59                           309
    x21       obj1                            1
    x21       c16                           427
    x21       c24                           577
    x21       c26                           661
    x21       c33                           511
    x21       c53                           541
    x22       obj1                            1
    x22       c11                           339
    x22       c13                           155
    x22       c19                           796
    x22       c22                           393
    x22       c33                           721
    x22       c55                           354
    x22       c59                           675
    x23       obj1                            1
    x23       c4                            634
    x23       c6                            935
    x23       c39                           854
    x23       c47                           786
    x24       obj1                            1
    x24       c2                            332
    x24       c9                            686
    x24       c18                           478
    x24       c34                           644
    x24       c37                           727
    x25       obj1                            1
    x25       c18                           854
    x25       c24                           643
    x25       c26                           808
    x25       c48                           912
    x25       c53                           441
    x25       c58                           340
    x25       c60                           541
    x26       obj1                            1
    x26       c39                           347
    x26       c41                           606
    x26       c43                           658
    x26       c44                           814
    x26       c45                           630
    x27       obj1                            1
    x27       c8                            413
    x27       c26                           234
    x27       c27                           695
    x27       c41                           781
    x28       obj1                            1
    x28       c4                            427
    x28       c9                            941
    x28       c12                           242
    x28       c13                           921
    x28       c21                           341
    x28       c28                           224
    x28       c39                           871
    x28       c45                           661
    x28       c53                           728
    x28       c56                           590
    x28       c57                           147
    x29       obj1                            1
    x29       c2                            824
    x29       c4                            572
    x29       c13                           706
    x29       c14                           960
    x29       c15                           314
    x29       c36                           403
    x29       c41                           303
    x29       c58                           180
    x30       obj1                            1
    x30       c6                            208
    x30       c7                            142
    x30       c27                           363
    x30       c32                           356
    x31       obj1                            1
    x31       c14                           898
    x31       c18                           954
    x31       c21                           565
    x31       c40                           928
    x32       obj1                            1
    x32       c1                            893
    x32       c6                            563
    x32       c7                            654
    x32       c11                           583
    x32       c17                           758
    x32       c19                           168
    x32       c27                           243
    x32       c34                           728
    x32       c51                           321
    x32       c55                           748
    x33       obj1                            1
    x33       c52                           246
    x34       obj1                            1
    x34       c8                            357
    x34       c12                           524
    x34       c15                           134
    x34       c22                           884
    x34       c24                           146
    x34       c25                           180
    x34       c38                           380
    x34       c41                           186
    x34       c51                           701
    x34       c53                           234
    x35       obj1                            1
    x35       c1                            551
    x35       c4                            814
    x35       c22                           350
    x35       c44                           472
    x35       c45                           397
    x35       c51                           639
    x35       c58                           408
    x36       obj1                            1
    x36       c9                            637
    x36       c16                           668
    x36       c34                           875
    x36       c39                           532
    x36       c43                           270
    x36       c51                           540
    x36       c52                           910
    x37       obj1                            1
    x37       c45                           861
    x38       obj1                            1
    x38       c10                           610
    x38       c28                           244
    x38       c48                           767
    x39       obj1                            1
    x39       c5                            499
    x39       c7                            999
    x39       c23                           554
    x39       c25                           290
    x39       c44                           268
    x39       c56                           672
    x40       obj1                            1
    x40       c17                           233
    x40       c46                           391
    x40       c56                           207
    x41       obj1                            1
    x41       c3                            710
    x41       c14                           741
    x41       c38                           493
    x41       c47                           678
    x41       c48                           827
    x41       c54                           908
    x42       obj1                            1
    x42       c9                            905
    x42       c42                           257
    x42       c48                           882
    x42       c53                           919
    x43       obj1                            1
    x43       c6                            594
    x43       c41                           454
    x43       c53                           906
    x43       c59                           559
    x44       obj1                            1
    x44       c8                            767
    x44       c13                           280
    x44       c15                           703
    x44       c29                           334
    x44       c31                           771
    x44       c33                           374
    x44       c34                           155
    x44       c36                           783
    x44       c40                           470
    x44       c41                           665
    x44       c58                           776
    x44       c60                           407
    x45       obj1                            1
    x45       c10                           396
    x45       c20                           202
    x46       obj1                            1
    x46       c5                            622
    x46       c17                           414
    x46       c22                           279
    x46       c60                           637
    x47       obj1                            1
    x47       c1                            166
    x47       c2                            495
    x47       c12                           467
    x47       c14                           171
    x47       c18                           839
    x47       c28                           386
    x47       c34                           503
    x47       c35                           422
    x47       c38                           283
    x47       c48                           938
    x48       obj1                            1
    x48       c12                           631
    x48       c18                           999
    x48       c21                           898
    x48       c25                           102
    x48       c32                           746
    x48       c42                           739
    x48       c52                           118
    x49       obj1                            1
    x49       c7                            995
    x49       c9                            664
    x49       c17                           242
    x50       obj1                            1
    x50       c2                            550
    x50       c8                            812
    x50       c14                           642
    x50       c40                           788
    x50       c46                           659
    x51       obj1                            1
    x51       c12                           292
    x51       c20                           935
    x51       c28                           132
    x51       c43                           685
    x51       c48                           710
    x51       c56                           154
    x52       obj1                            1
    x52       c7                            953
    x52       c10                           996
    x52       c20                           364
    x52       c32                           440
    x52       c33                           795
    x52       c36                           843
    x52       c51                           237
    x52       c59                           194
    x53       obj1                            1
    x53       c3                            621
    x53       c18                           391
    x53       c29                           639
    x53       c35                           330
    x53       c45                           405
    x53       c53                           793
    x53       c58                           316
    x54       obj1                            1
    x54       c20                           821
    x54       c41                           172
    x54       c48                           295
    x54       c59                           132
    x55       obj1                            1
    x55       c1                            868
    x55       c6                            862
    x55       c30                           211
    x55       c42                           656
    x56       obj1                            1
    x56       c4                            913
    x56       c5                            183
    x56       c14                           513
    x56       c22                           694
    x56       c23                           493
    x56       c26                           638
    x56       c29                           453
    x56       c31                           376
    x56       c34                           182
    x56       c45                           940
    x57       obj1                            1
    x57       c7                            745
    x57       c11                           330
    x57       c23                           146
    x57       c27                           834
    x57       c39                           954
    x57       c52                           376
    x58       obj1                            1
    x58       c10                           311
    x58       c20                           464
    x58       c42                           302
    x58       c47                           751
    x58       c49                           633
    x59       obj1                            1
    x59       c4                            215
    x59       c30                           397
    x59       c38                           560
    x59       c40                           752
    x59       c44                           836
    x59       c47                           148
    x60       obj1                            1
    x60       c2                            390
    x60       c8                            823
    x60       c12                           743
    x60       c26                           435
    x60       c37                           655
    x60       c38                           939
    x60       c47                           492
    x60       c49                           519
    x60       c54                           354
    x60       c56                           480
    x60       c57                           354
    MARK0001  'MARKER'                 'INTEND'
RHS
    rhs       c1                           1706
    rhs       c2                           1791
    rhs       c3                            977
    rhs       c4                           2492
    rhs       c5                            652
    rhs       c6                           2203
    rhs       c7                           2918
    rhs       c8                           1894
    rhs       c9                           2334
    rhs       c10                          2103
    rhs       c11                           971
    rhs       c12                          1836
    rhs       c13                          1031
    rhs       c14                          2822
    rhs       c15                          1771
    rhs       c16                          1426
    rhs       c17                           824
    rhs       c18                          2963
    rhs       c19                          1599
    rhs       c20                          1579
    rhs       c21                           984
    rhs       c22                          2553
    rhs       c23                           816
    rhs       c24                          1577
    rhs       c25                           539
    rhs       c26                          1629
    rhs       c27                          2186
    rhs       c28                           493
    rhs       c29                          1489
    rhs       c30                          1307
    rhs       c31                          2277
    rhs       c32                          1465
    rhs       c33                          1326
    rhs       c34                          2178
    rhs       c35                          1051
    rhs       c36                          1613
    rhs       c37                          1278
    rhs       c38                          2212
    rhs       c39                          1779
    rhs       c40                          2140
    rhs       c41                          2475
    rhs       c42                          1101
    rhs       c43                          1522
    rhs       c44                          1195
    rhs       c45                          2020
    rhs       c46                          1015
    rhs       c47                          1922
    rhs       c48                          2950
    rhs       c49                           905
    rhs       c50                          1039
    rhs       c51                          1376
    rhs       c52                          1205
    rhs       c53                          2530
    rhs       c54                          1374
    rhs       c55                          1009
    rhs       c56                          2712
    rhs       c57                           996
    rhs       c58                          1657
    rhs       c59                          1389
    rhs       c60                          1064
BOUNDS
 LI bnd       x1        0
 LI bnd       x2        0
 LI bnd       x3        0
 LI bnd       x4        0
 LI bnd       x5        0
 LI bnd       x6        0
 LI bnd       x7        0
 LI bnd       x8        0
 LI bnd       x9        0
 LI bnd       x10       0
 LI bnd       x11       0
 LI bnd       x12       0
 LI bnd       x13       0
 LI bnd       x14       0
 LI bnd       x15       0
 LI bnd       x16       0
 LI bnd       x17       0
 LI bnd       x18       0
 LI bnd       x19       0
 LI bnd       x20       0
 LI bnd       x21       0
 LI bnd       x22       0
 LI bnd       x23       0
 LI bnd       x24       0
 LI bnd       x25       0
 LI bnd       x26       0
 LI bnd       x27       0
 LI bnd       x28       0
 LI bnd       x29       0
 LI bnd       x30       0
 LI bnd       x31       0
 LI bnd       x32       0
 LI bnd       x33       0
 LI bnd       x34       0
 LI bnd       x35       0
 LI bnd       x36       0
 LI bnd       x37       0
 LI bnd       x38       0
 LI bnd       x39       0
 LI bnd       x40       0
 LI bnd       x41       0
 LI bnd       x42       0
 LI bnd       x43       0
 LI bnd       x44       0
 LI bnd       x45       0
 LI bnd       x46       0
 LI bnd       x47       0
 LI bnd       x48       0
 LI bnd       x49       0
 LI bnd       x50       0
 LI bnd       x51       0
 LI bnd       x52       0
 LI bnd       x53       0
 LI bnd       x54       0
 LI bnd       x55       0
 LI bnd       x56       0
 LI bnd       x57       0
 LI bnd       x58       0
 LI bnd       x59       0
 LI bnd       x60       0
ENDATA
